c FILE: i160-311

c SOURCE: From steinlib

c DESCRIPTION: Steinlib instance with 160 nodes and 812 edges.

p edge 160 812
e 1 26
e 1 27
e 1 45
e 1 60
e 1 62
e 1 79
e 1 88
e 1 131
e 1 144
e 2 31
e 2 33
e 2 46
e 2 60
e 2 99
e 2 108
e 2 131
e 2 132
e 2 136
e 3 34
e 3 57
e 3 71
e 3 80
e 3 89
e 3 94
e 3 109
e 3 117
e 3 121
e 3 128
e 3 144
e 3 156
e 4 11
e 4 13
e 4 17
e 4 47
e 4 53
e 4 90
e 4 101
e 4 106
e 4 109
e 4 147
e 4 149
e 5 7
e 5 12
e 5 21
e 5 24
e 5 42
e 5 57
e 5 65
e 5 78
e 5 132
e 5 133
e 5 145
e 5 158
e 6 18
e 6 38
e 6 43
e 6 55
e 6 85
e 6 100
e 6 120
e 6 131
e 6 145
e 6 151
e 7 27
e 7 28
e 7 29
e 7 33
e 7 37
e 7 43
e 7 48
e 7 74
e 7 81
e 7 91
e 7 93
e 7 97
e 7 102
e 8 23
e 8 34
e 8 42
e 8 50
e 8 69
e 8 96
e 8 136
e 9 15
e 9 22
e 9 55
e 9 97
e 9 106
e 9 110
e 9 118
e 9 139
e 10 51
e 10 64
e 10 68
e 10 83
e 10 113
e 10 116
e 10 119
e 10 128
e 10 146
e 10 154
e 11 45
e 11 58
e 11 68
e 11 87
e 11 128
e 11 143
e 11 145
e 11 146
e 11 159
e 12 14
e 12 19
e 12 32
e 12 56
e 12 68
e 12 97
e 12 99
e 12 105
e 12 110
e 13 47
e 13 49
e 13 68
e 13 70
e 13 82
e 13 90
e 13 94
e 13 100
e 13 122
e 13 147
e 13 150
e 14 54
e 14 63
e 14 69
e 14 74
e 14 90
e 14 110
e 14 112
e 14 141
e 14 146
e 15 30
e 15 53
e 15 74
e 15 82
e 15 115
e 15 118
e 15 122
e 15 128
e 15 146
e 16 18
e 16 24
e 16 28
e 16 41
e 16 54
e 16 59
e 16 99
e 16 102
e 16 115
e 16 156
e 17 50
e 17 87
e 17 110
e 17 130
e 18 22
e 18 32
e 18 47
e 18 53
e 18 117
e 19 51
e 19 66
e 19 76
e 19 98
e 19 104
e 19 128
e 19 133
e 19 141
e 19 148
e 20 28
e 20 32
e 20 61
e 20 114
e 20 115
e 20 141
e 20 148
e 20 151
e 21 37
e 21 72
e 21 76
e 21 84
e 21 85
e 21 92
e 21 102
e 21 116
e 21 145
e 22 45
e 22 50
e 22 71
e 22 76
e 22 80
e 22 86
e 22 93
e 22 127
e 22 130
e 22 152
e 23 60
e 23 65
e 23 85
e 23 96
e 23 107
e 23 108
e 23 126
e 24 33
e 24 45
e 24 52
e 24 56
e 24 59
e 24 64
e 24 84
e 24 119
e 24 125
e 24 139
e 24 143
e 25 39
e 25 155
e 25 158
e 25 159
e 26 70
e 26 76
e 26 119
e 26 130
e 26 143
e 27 76
e 27 79
e 27 86
e 27 94
e 27 110
e 27 130
e 27 141
e 27 142
e 27 143
e 27 144
e 27 147
e 28 32
e 28 113
e 28 126
e 28 128
e 29 65
e 29 92
e 29 108
e 29 111
e 29 155
e 29 159
e 30 31
e 30 34
e 30 37
e 30 46
e 30 47
e 30 50
e 30 86
e 30 97
e 30 143
e 30 151
e 31 47
e 31 59
e 31 66
e 31 70
e 31 84
e 31 89
e 31 102
e 31 123
e 31 138
e 31 147
e 32 37
e 32 57
e 32 67
e 32 71
e 32 73
e 32 114
e 32 118
e 32 127
e 32 153
e 32 159
e 33 48
e 33 49
e 33 57
e 33 82
e 33 98
e 33 111
e 33 131
e 33 150
e 34 49
e 34 66
e 34 67
e 34 68
e 34 83
e 34 100
e 34 117
e 34 156
e 35 38
e 35 63
e 35 78
e 35 129
e 36 47
e 36 64
e 36 96
e 36 120
e 36 135
e 36 145
e 37 52
e 37 66
e 37 69
e 37 76
e 37 82
e 37 88
e 37 89
e 37 93
e 37 94
e 37 99
e 37 100
e 37 110
e 37 112
e 37 123
e 37 159
e 38 120
e 38 123
e 38 146
e 39 48
e 39 55
e 39 64
e 39 69
e 39 101
e 39 116
e 39 121
e 39 133
e 39 135
e 39 145
e 39 149
e 40 43
e 40 44
e 40 53
e 40 63
e 40 65
e 40 75
e 40 77
e 40 106
e 40 109
e 40 112
e 40 113
e 40 117
e 40 134
e 40 137
e 41 51
e 41 65
e 41 83
e 41 97
e 41 118
e 41 119
e 41 120
e 42 60
e 42 63
e 42 82
e 42 99
e 42 137
e 42 147
e 42 155
e 43 44
e 43 59
e 43 75
e 43 111
e 43 136
e 43 160
e 44 50
e 44 63
e 44 72
e 44 83
e 44 86
e 44 95
e 44 96
e 44 108
e 44 138
e 44 145
e 44 147
e 45 46
e 45 55
e 45 57
e 45 79
e 45 116
e 45 124
e 45 130
e 45 139
e 46 63
e 46 67
e 46 69
e 46 103
e 46 149
e 47 51
e 47 57
e 47 70
e 47 84
e 47 92
e 47 103
e 47 114
e 47 121
e 47 154
e 48 52
e 48 88
e 48 115
e 48 131
e 48 138
e 48 141
e 48 153
e 49 62
e 49 81
e 49 99
e 49 100
e 49 109
e 49 132
e 49 143
e 49 150
e 50 69
e 50 89
e 50 104
e 50 126
e 50 134
e 50 158
e 51 54
e 51 56
e 51 59
e 51 63
e 51 76
e 51 79
e 51 85
e 51 121
e 51 122
e 51 132
e 51 139
e 51 145
e 52 68
e 52 84
e 52 98
e 52 108
e 52 109
e 52 124
e 52 128
e 52 136
e 52 145
e 53 70
e 53 74
e 53 86
e 53 95
e 53 98
e 53 119
e 53 145
e 53 152
e 54 56
e 54 80
e 54 120
e 54 151
e 55 78
e 55 79
e 55 93
e 55 114
e 55 115
e 56 67
e 56 68
e 56 132
e 56 134
e 56 143
e 57 67
e 57 69
e 57 73
e 57 78
e 57 107
e 57 109
e 57 110
e 57 118
e 57 139
e 58 77
e 58 82
e 58 85
e 58 114
e 58 115
e 58 135
e 58 137
e 58 140
e 59 64
e 59 67
e 59 81
e 59 84
e 59 105
e 59 110
e 60 62
e 60 73
e 60 83
e 60 103
e 60 112
e 60 121
e 60 123
e 60 140
e 60 146
e 60 155
e 61 73
e 61 74
e 61 77
e 61 101
e 61 117
e 62 63
e 62 76
e 62 79
e 62 83
e 62 84
e 62 112
e 62 123
e 62 148
e 63 72
e 63 86
e 63 87
e 63 88
e 63 95
e 63 134
e 64 74
e 64 94
e 64 103
e 64 118
e 64 121
e 64 124
e 64 152
e 64 158
e 65 69
e 65 110
e 65 147
e 65 149
e 66 120
e 66 128
e 66 136
e 66 138
e 66 159
e 67 83
e 67 86
e 67 134
e 68 71
e 68 88
e 68 89
e 68 108
e 68 122
e 68 157
e 69 74
e 69 94
e 69 139
e 69 144
e 69 149
e 70 71
e 70 78
e 70 97
e 70 114
e 70 147
e 71 91
e 71 116
e 71 137
e 72 91
e 72 93
e 72 127
e 72 140
e 72 149
e 72 152
e 72 153
e 73 80
e 73 89
e 73 93
e 73 100
e 73 106
e 73 123
e 73 154
e 73 157
e 74 76
e 74 83
e 74 92
e 74 114
e 74 122
e 74 140
e 75 79
e 75 83
e 75 91
e 75 93
e 75 96
e 75 107
e 75 116
e 75 119
e 75 125
e 75 150
e 76 77
e 76 80
e 76 141
e 76 156
e 77 123
e 77 144
e 77 145
e 77 151
e 78 84
e 78 94
e 78 106
e 79 80
e 79 108
e 79 109
e 79 132
e 79 137
e 79 149
e 80 82
e 80 101
e 80 110
e 80 117
e 80 122
e 80 124
e 80 127
e 80 139
e 80 143
e 80 144
e 80 156
e 81 84
e 81 105
e 81 109
e 81 115
e 82 96
e 82 102
e 82 151
e 83 87
e 83 109
e 83 117
e 83 127
e 83 143
e 83 154
e 84 129
e 84 138
e 84 140
e 84 152
e 85 101
e 85 102
e 85 104
e 85 136
e 85 158
e 86 93
e 86 115
e 86 131
e 86 148
e 86 152
e 86 159
e 87 88
e 87 104
e 87 143
e 88 150
e 88 160
e 89 111
e 89 117
e 89 130
e 89 136
e 90 93
e 90 109
e 90 137
e 90 144
e 90 160
e 91 94
e 91 101
e 91 102
e 91 110
e 92 99
e 92 128
e 93 100
e 93 101
e 93 119
e 93 153
e 93 154
e 93 155
e 94 98
e 94 112
e 94 140
e 94 147
e 94 150
e 95 113
e 95 139
e 95 156
e 96 97
e 96 141
e 96 147
e 96 156
e 96 158
e 97 110
e 97 132
e 97 141
e 97 143
e 97 153
e 98 105
e 98 145
e 98 148
e 99 119
e 100 102
e 100 128
e 100 129
e 100 160
e 101 139
e 101 153
e 101 159
e 102 115
e 102 135
e 102 136
e 102 155
e 102 157
e 103 112
e 103 122
e 103 128
e 103 139
e 103 140
e 104 123
e 105 114
e 105 123
e 105 139
e 105 141
e 105 142
e 106 108
e 106 114
e 106 128
e 107 112
e 107 123
e 107 136
e 108 111
e 108 122
e 108 123
e 108 134
e 108 147
e 109 117
e 109 125
e 109 126
e 109 136
e 109 142
e 109 144
e 109 146
e 109 148
e 110 117
e 110 130
e 110 157
e 110 159
e 111 132
e 111 138
e 111 140
e 111 150
e 112 113
e 112 122
e 112 160
e 113 132
e 113 144
e 113 147
e 113 149
e 113 159
e 115 123
e 115 128
e 116 124
e 116 150
e 116 155
e 117 119
e 117 123
e 117 125
e 117 139
e 117 154
e 118 120
e 118 145
e 119 123
e 119 140
e 119 141
e 119 146
e 120 155
e 121 138
e 121 139
e 121 143
e 122 128
e 122 129
e 122 153
e 122 154
e 123 144
e 123 154
e 123 160
e 124 150
e 124 153
e 124 157
e 126 144
e 126 146
e 126 152
e 127 132
e 128 141
e 129 140
e 130 137
e 130 148
e 131 137
e 131 150
e 131 159
e 132 135
e 132 148
e 133 137
e 133 159
e 136 160
e 137 142
e 137 157
e 139 158
e 140 144
e 140 154
e 141 146
e 142 152
e 143 159
e 145 156
e 146 155
e 147 150
e 148 153
e 149 160
e 153 154
e 156 159
